(set-logic QF_FP)
(set-info :source |Random FP created by PyMPF|)
(set-info :category random)
(set-info :status unsat)
(declare-const x Float32)
(assert (= x ((_ to_fp 8 24) #x4AA7570F)))
(declare-const y Float32)
(assert (= y ((_ to_fp 8 24) #x0075121A)))
(declare-const z Float32)
(assert (= z (fp #b1 #b00011100 #b01110000100100000011000)))
(declare-const result Float32)
(assert (= result (fp.fma RTN x y z)))
(assert (not (= result (fp #b1 #b00011100 #b01100110111111110101111))))
(check-sat)
(exit)
